c nIsolatedPIs 0
c maxPI 128
p cnf 691 1690
c gate 129 28 -33 0
28 -129 0
-33 -129 0
-28 33 129 0
c gate 130 23 -25 0
23 -130 0
-25 -130 0
-23 25 130 0
c gate 131 -23 25 0
-23 -131 0
25 -131 0
23 -25 131 0
c gate 132 -130 -131 0
-130 -132 0
-131 -132 0
130 131 132 0
c gate 133 -21 132 0
-21 -133 0
132 -133 0
21 -132 133 0
c gate 134 21 -132 0
21 -134 0
-132 -134 0
-21 132 134 0
c gate 135 -26 -27 0
-26 -135 0
-27 -135 0
26 27 135 0
c gate 136 26 27 0
26 -136 0
27 -136 0
-26 -27 136 0
c gate 137 -135 -136 0
-135 -137 0
-136 -137 0
135 136 137 0
c gate 138 -134 -137 0
-134 -138 0
-137 -138 0
134 137 138 0
c gate 139 -133 138 0
-133 -139 0
138 -139 0
133 -138 139 0
c gate 140 -23 -27 0
-23 -140 0
-27 -140 0
23 27 140 0
c gate 141 23 27 0
23 -141 0
27 -141 0
-23 -27 141 0
c gate 142 -140 -141 0
-140 -142 0
-141 -142 0
140 141 142 0
c gate 143 -22 -142 0
-22 -143 0
-142 -143 0
22 142 143 0
c gate 144 22 131 0
22 -144 0
131 -144 0
-22 -131 144 0
c gate 145 -21 -26 0
-21 -145 0
-26 -145 0
21 26 145 0
c gate 146 -130 145 0
-130 -146 0
145 -146 0
130 -145 146 0
c gate 147 -144 146 0
-144 -147 0
146 -147 0
144 -146 147 0
c gate 148 -143 147 0
-143 -148 0
147 -148 0
143 -147 148 0
c gate 149 -26 134 0
-26 -149 0
134 -149 0
26 -134 149 0
c gate 150 -23 -25 0
-23 -150 0
-25 -150 0
23 25 150 0
c gate 151 -21 26 0
-21 -151 0
26 -151 0
21 -26 151 0
c gate 152 150 151 0
150 -152 0
151 -152 0
-150 -151 152 0
c gate 153 -149 -152 0
-149 -153 0
-152 -153 0
149 152 153 0
c gate 154 -148 153 0
-148 -154 0
153 -154 0
148 -153 154 0
c gate 155 -139 154 0
-139 -155 0
154 -155 0
139 -154 155 0
c gate 156 -27 -155 0
-27 -156 0
-155 -156 0
27 155 156 0
c gate 157 21 -150 0
21 -157 0
-150 -157 0
-21 150 157 0
c gate 158 156 157 0
156 -158 0
157 -158 0
-156 -157 158 0
c gate 159 -129 -158 0
-129 -159 0
-158 -159 0
129 158 159 0
c gate 160 23 -156 0
23 -160 0
-156 -160 0
-23 156 160 0
c gate 161 -21 -160 0
-21 -161 0
-160 -161 0
21 160 161 0
c gate 162 -25 -155 0
-25 -162 0
-155 -162 0
25 155 162 0
c gate 163 -27 -162 0
-27 -163 0
-162 -163 0
27 162 163 0
c gate 164 -19 -20 0
-19 -164 0
-20 -164 0
19 20 164 0
c gate 165 -17 -18 0
-17 -165 0
-18 -165 0
17 18 165 0
c gate 166 -15 -16 0
-15 -166 0
-16 -166 0
15 16 166 0
c gate 167 -12 -14 0
-12 -167 0
-14 -167 0
12 14 167 0
c gate 168 -10 -11 0
-10 -168 0
-11 -168 0
10 11 168 0
c gate 169 -8 -9 0
-8 -169 0
-9 -169 0
8 9 169 0
c gate 170 -6 -7 0
-6 -170 0
-7 -170 0
6 7 170 0
c gate 171 -4 -5 0
-4 -171 0
-5 -171 0
4 5 171 0
c gate 172 -3 -128 0
-3 -172 0
-128 -172 0
3 128 172 0
c gate 173 171 -172 0
171 -173 0
-172 -173 0
-171 172 173 0
c gate 174 170 -173 0
170 -174 0
-173 -174 0
-170 173 174 0
c gate 175 169 -174 0
169 -175 0
-174 -175 0
-169 174 175 0
c gate 176 168 -175 0
168 -176 0
-175 -176 0
-168 175 176 0
c gate 177 167 -176 0
167 -177 0
-176 -177 0
-167 176 177 0
c gate 178 166 -177 0
166 -178 0
-177 -178 0
-166 177 178 0
c gate 179 165 -178 0
165 -179 0
-178 -179 0
-165 178 179 0
c gate 180 164 -179 0
164 -180 0
-179 -180 0
-164 179 180 0
c gate 181 164 165 0
164 -181 0
165 -181 0
-164 -165 181 0
c gate 182 -126 -127 0
-126 -182 0
-127 -182 0
126 127 182 0
c gate 183 170 182 0
170 -183 0
182 -183 0
-170 -182 183 0
c gate 184 171 172 0
171 -184 0
172 -184 0
-171 -172 184 0
c gate 185 183 184 0
183 -185 0
184 -185 0
-183 -184 185 0
c gate 186 166 167 0
166 -186 0
167 -186 0
-166 -167 186 0
c gate 187 168 169 0
168 -187 0
169 -187 0
-168 -169 187 0
c gate 188 186 187 0
186 -188 0
187 -188 0
-186 -187 188 0
c gate 189 185 188 0
185 -189 0
188 -189 0
-185 -188 189 0
c gate 190 181 189 0
181 -190 0
189 -190 0
-181 -189 190 0
c gate 191 -124 -125 0
-124 -191 0
-125 -191 0
124 125 191 0
c gate 192 -122 -123 0
-122 -192 0
-123 -192 0
122 123 192 0
c gate 193 -120 -121 0
-120 -193 0
-121 -193 0
120 121 193 0
c gate 194 -117 -119 0
-117 -194 0
-119 -194 0
117 119 194 0
c gate 195 -115 -116 0
-115 -195 0
-116 -195 0
115 116 195 0
c gate 196 -113 -114 0
-113 -196 0
-114 -196 0
113 114 196 0
c gate 197 -111 -112 0
-111 -197 0
-112 -197 0
111 112 197 0
c gate 198 -109 -110 0
-109 -198 0
-110 -198 0
109 110 198 0
c gate 199 -106 -108 0
-106 -199 0
-108 -199 0
106 108 199 0
c gate 200 -102 -103 0
-102 -200 0
-103 -200 0
102 103 200 0
c gate 201 -104 -105 0
-104 -201 0
-105 -201 0
104 105 201 0
c gate 202 199 201 0
199 -202 0
201 -202 0
-199 -201 202 0
c gate 203 -30 -31 0
-30 -203 0
-31 -203 0
30 31 203 0
c gate 204 -32 203 0
-32 -204 0
203 -204 0
32 -203 204 0
c gate 205 -28 -29 0
-28 -205 0
-29 -205 0
28 29 205 0
c gate 206 -33 135 0
-33 -206 0
135 -206 0
33 -135 206 0
c gate 207 205 206 0
205 -207 0
206 -207 0
-205 -206 207 0
c gate 208 204 207 0
204 -208 0
207 -208 0
-204 -207 208 0
c gate 209 181 208 0
181 -209 0
208 -209 0
-181 -208 209 0
c gate 210 155 209 0
155 -210 0
209 -210 0
-155 -209 210 0
c gate 211 197 198 0
197 -211 0
198 -211 0
-197 -198 211 0
c gate 212 210 211 0
210 -212 0
211 -212 0
-210 -211 212 0
c gate 213 -202 212 0
-202 -213 0
212 -213 0
202 -212 213 0
c gate 214 191 192 0
191 -214 0
192 -214 0
-191 -192 214 0
c gate 215 193 194 0
193 -215 0
194 -215 0
-193 -194 215 0
c gate 216 214 215 0
214 -216 0
215 -216 0
-214 -215 216 0
c gate 217 188 -216 0
188 -217 0
-216 -217 0
-188 216 217 0
c gate 218 185 217 0
185 -218 0
217 -218 0
-185 -217 218 0
c gate 219 195 196 0
195 -219 0
196 -219 0
-195 -196 219 0
c gate 220 -218 219 0
-218 -220 0
219 -220 0
218 -219 220 0
c gate 221 -213 220 0
-213 -221 0
220 -221 0
213 -220 221 0
c gate 222 -200 221 0
-200 -222 0
221 -222 0
200 -221 222 0
c gate 223 199 -222 0
199 -223 0
-222 -223 0
-199 222 223 0
c gate 224 -100 -101 0
-100 -224 0
-101 -224 0
100 101 224 0
c gate 225 200 224 0
200 -225 0
224 -225 0
-200 -224 225 0
c gate 226 212 -225 0
212 -226 0
-225 -226 0
-212 225 226 0
c gate 227 221 -226 0
221 -227 0
-226 -227 0
-221 226 227 0
c gate 228 -98 -99 0
-98 -228 0
-99 -228 0
98 99 228 0
c gate 229 -95 -97 0
-95 -229 0
-97 -229 0
95 97 229 0
c gate 230 -93 -94 0
-93 -230 0
-94 -230 0
93 94 230 0
c gate 231 -91 -92 0
-91 -231 0
-92 -231 0
91 92 231 0
c gate 232 210 231 0
210 -232 0
231 -232 0
-210 -231 232 0
c gate 233 -89 -90 0
-89 -233 0
-90 -233 0
89 90 233 0
c gate 234 -87 -88 0
-87 -234 0
-88 -234 0
87 88 234 0
c gate 235 -84 -86 0
-84 -235 0
-86 -235 0
84 86 235 0
c gate 236 -82 -83 0
-82 -236 0
-83 -236 0
82 83 236 0
c gate 237 -80 -81 0
-80 -237 0
-81 -237 0
80 81 237 0
c gate 238 -78 -79 0
-78 -238 0
-79 -238 0
78 79 238 0
c gate 239 -76 -77 0
-76 -239 0
-77 -239 0
76 77 239 0
c gate 240 -73 -75 0
-73 -240 0
-75 -240 0
73 75 240 0
c gate 241 -65 -66 0
-65 -241 0
-66 -241 0
65 66 241 0
c gate 242 -62 -64 0
-62 -242 0
-64 -242 0
62 64 242 0
c gate 243 -60 -61 0
-60 -243 0
-61 -243 0
60 61 243 0
c gate 244 -58 -59 0
-58 -244 0
-59 -244 0
58 59 244 0
c gate 245 243 -244 0
243 -245 0
-244 -245 0
-243 244 245 0
c gate 246 242 -245 0
242 -246 0
-245 -246 0
-242 245 246 0
c gate 247 241 -246 0
241 -247 0
-246 -247 0
-241 246 247 0
c gate 248 -71 -72 0
-71 -248 0
-72 -248 0
71 72 248 0
c gate 249 -67 -68 0
-67 -249 0
-68 -249 0
67 68 249 0
c gate 250 248 249 0
248 -250 0
249 -250 0
-248 -249 250 0
c gate 251 -247 250 0
-247 -251 0
250 -251 0
247 -250 251 0
c gate 252 240 -251 0
240 -252 0
-251 -252 0
-240 251 252 0
c gate 253 239 -252 0
239 -253 0
-252 -253 0
-239 252 253 0
c gate 254 238 -253 0
238 -254 0
-253 -254 0
-238 253 254 0
c gate 255 237 -254 0
237 -255 0
-254 -255 0
-237 254 255 0
c gate 256 236 -255 0
236 -256 0
-255 -256 0
-236 255 256 0
c gate 257 235 -256 0
235 -257 0
-256 -257 0
-235 256 257 0
c gate 258 234 -257 0
234 -258 0
-257 -258 0
-234 257 258 0
c gate 259 233 -258 0
233 -259 0
-258 -259 0
-233 258 259 0
c gate 260 232 -259 0
232 -260 0
-259 -260 0
-232 259 260 0
c gate 261 230 -260 0
230 -261 0
-260 -261 0
-230 260 261 0
c gate 262 229 -261 0
229 -262 0
-261 -262 0
-229 261 262 0
c gate 263 228 -262 0
228 -263 0
-262 -263 0
-228 262 263 0
c gate 264 227 -263 0
227 -264 0
-263 -264 0
-227 263 264 0
c gate 265 223 -264 0
223 -265 0
-264 -265 0
-223 264 265 0
c gate 266 198 -265 0
198 -266 0
-265 -266 0
-198 265 266 0
c gate 267 197 -266 0
197 -267 0
-266 -267 0
-197 266 267 0
c gate 268 196 -267 0
196 -268 0
-267 -268 0
-196 267 268 0
c gate 269 195 -268 0
195 -269 0
-268 -269 0
-195 268 269 0
c gate 270 194 -269 0
194 -270 0
-269 -270 0
-194 269 270 0
c gate 271 193 -270 0
193 -271 0
-270 -271 0
-193 270 271 0
c gate 272 192 -271 0
192 -272 0
-271 -272 0
-192 271 272 0
c gate 273 191 -272 0
191 -273 0
-272 -273 0
-191 272 273 0
c gate 274 190 -273 0
190 -274 0
-273 -274 0
-190 273 274 0
c gate 275 180 -274 0
180 -275 0
-274 -275 0
-180 274 275 0
c gate 276 -25 -275 0
-25 -276 0
-275 -276 0
25 275 276 0
c gate 277 155 -276 0
155 -277 0
-276 -277 0
-155 276 277 0
c gate 278 163 -277 0
163 -278 0
-277 -278 0
-163 277 278 0
c gate 279 -25 27 0
-25 -279 0
27 -279 0
25 -27 279 0
c gate 280 155 279 0
155 -280 0
279 -280 0
-155 -279 280 0
c gate 281 275 280 0
275 -281 0
280 -281 0
-275 -280 281 0
c gate 282 -23 -281 0
-23 -282 0
-281 -282 0
23 281 282 0
c gate 283 -278 282 0
-278 -283 0
282 -283 0
278 -282 283 0
c gate 284 161 -283 0
161 -284 0
-283 -284 0
-161 283 284 0
c gate 285 159 -284 0
159 -285 0
-284 -285 0
-159 284 285 0
c gate 286 233 234 0
233 -286 0
234 -286 0
-233 -234 286 0
c gate 287 230 232 0
230 -287 0
232 -287 0
-230 -232 287 0
c gate 288 286 287 0
286 -288 0
287 -288 0
-286 -287 288 0
c gate 289 235 236 0
235 -289 0
236 -289 0
-235 -236 289 0
c gate 290 288 289 0
288 -290 0
289 -290 0
-288 -289 290 0
c gate 291 237 238 0
237 -291 0
238 -291 0
-237 -238 291 0
c gate 292 240 291 0
240 -292 0
291 -292 0
-240 -291 292 0
c gate 293 241 249 0
241 -293 0
249 -293 0
-241 -249 293 0
c gate 294 -69 -70 0
-69 -294 0
-70 -294 0
69 70 294 0
c gate 295 248 294 0
248 -295 0
294 -295 0
-248 -294 295 0
c gate 296 293 295 0
293 -296 0
295 -296 0
-293 -295 296 0
c gate 297 -49 -50 0
-49 -297 0
-50 -297 0
49 50 297 0
c gate 298 -47 -48 0
-47 -298 0
-48 -298 0
47 48 298 0
c gate 299 -45 -46 0
-45 -299 0
-46 -299 0
45 46 299 0
c gate 300 -43 -44 0
-43 -300 0
-44 -300 0
43 44 300 0
c gate 301 -40 -42 0
-40 -301 0
-42 -301 0
40 42 301 0
c gate 302 -38 -39 0
-38 -302 0
-39 -302 0
38 39 302 0
c gate 303 -36 -37 0
-36 -303 0
-37 -303 0
36 37 303 0
c gate 304 -34 -35 0
-34 -304 0
-35 -304 0
34 35 304 0
c gate 305 242 243 0
242 -305 0
243 -305 0
-242 -243 305 0
c gate 306 241 305 0
241 -306 0
305 -306 0
-241 -305 306 0
c gate 307 -56 -57 0
-56 -307 0
-57 -307 0
56 57 307 0
c gate 308 244 307 0
244 -308 0
307 -308 0
-244 -307 308 0
c gate 309 306 308 0
306 -309 0
308 -309 0
-306 -308 309 0
c gate 310 249 309 0
249 -310 0
309 -310 0
-249 -309 310 0
c gate 311 295 310 0
295 -311 0
310 -311 0
-295 -310 311 0
c gate 312 293 -305 0
293 -312 0
-305 -312 0
-293 305 312 0
c gate 313 43 44 0
43 -313 0
44 -313 0
-43 -44 313 0
c gate 314 45 46 0
45 -314 0
46 -314 0
-45 -46 314 0
c gate 315 313 314 0
313 -315 0
314 -315 0
-313 -314 315 0
c gate 316 312 -315 0
312 -316 0
-315 -316 0
-312 315 316 0
c gate 317 299 300 0
299 -317 0
300 -317 0
-299 -300 317 0
c gate 318 -312 -317 0
-312 -318 0
-317 -318 0
312 317 318 0
c gate 319 301 302 0
301 -319 0
302 -319 0
-301 -302 319 0
c gate 320 -318 319 0
-318 -320 0
319 -320 0
318 -319 320 0
c gate 321 -316 320 0
-316 -321 0
320 -321 0
316 -320 321 0
c gate 322 -54 -55 0
-54 -322 0
-55 -322 0
54 55 322 0
c gate 323 -51 -53 0
-51 -323 0
-53 -323 0
51 53 323 0
c gate 324 322 323 0
322 -324 0
323 -324 0
-322 -323 324 0
c gate 325 297 298 0
297 -325 0
298 -325 0
-297 -298 325 0
c gate 326 324 325 0
324 -326 0
325 -326 0
-324 -325 326 0
c gate 327 321 326 0
321 -327 0
326 -327 0
-321 -326 327 0
c gate 328 311 -327 0
311 -328 0
-327 -328 0
-311 327 328 0
c gate 329 311 326 0
311 -329 0
326 -329 0
-311 -326 329 0
c gate 330 303 304 0
303 -330 0
304 -330 0
-303 -304 330 0
c gate 331 -2 -13 0
-2 -331 0
-13 -331 0
2 13 331 0
c gate 332 -118 331 0
-118 -332 0
331 -332 0
118 -331 332 0
c gate 333 -24 332 0
-24 -333 0
332 -333 0
24 -332 333 0
c gate 334 330 333 0
330 -334 0
333 -334 0
-330 -333 334 0
c gate 335 329 334 0
329 -335 0
334 -335 0
-329 -334 335 0
c gate 336 -328 335 0
-328 -336 0
335 -336 0
328 -335 336 0
c gate 337 -96 -107 0
-96 -337 0
-107 -337 0
96 107 337 0
c gate 338 -74 -85 0
-74 -338 0
-85 -338 0
74 85 338 0
c gate 339 -52 -63 0
-52 -339 0
-63 -339 0
52 63 339 0
c gate 340 338 -339 0
338 -340 0
-339 -340 0
-338 339 340 0
c gate 341 337 -340 0
337 -341 0
-340 -341 0
-337 340 341 0
c gate 342 336 -341 0
336 -342 0
-341 -342 0
-336 341 342 0
c gate 343 -13 -24 0
-13 -343 0
-24 -343 0
13 24 343 0
c gate 344 -342 343 0
-342 -344 0
343 -344 0
342 -343 344 0
c gate 345 304 -344 0
304 -345 0
-344 -345 0
-304 344 345 0
c gate 346 303 -345 0
303 -346 0
-345 -346 0
-303 345 346 0
c gate 347 302 -346 0
302 -347 0
-346 -347 0
-302 346 347 0
c gate 348 301 -347 0
301 -348 0
-347 -348 0
-301 347 348 0
c gate 349 300 -348 0
300 -349 0
-348 -349 0
-300 348 349 0
c gate 350 299 -349 0
299 -350 0
-349 -350 0
-299 349 350 0
c gate 351 298 -350 0
298 -351 0
-350 -351 0
-298 350 351 0
c gate 352 297 -351 0
297 -352 0
-351 -352 0
-297 351 352 0
c gate 353 311 324 0
311 -353 0
324 -353 0
-311 -324 353 0
c gate 354 -352 353 0
-352 -354 0
353 -354 0
352 -353 354 0
c gate 355 311 -322 0
311 -355 0
-322 -355 0
-311 322 355 0
c gate 356 246 -355 0
246 -356 0
-355 -356 0
-246 355 356 0
c gate 357 -354 356 0
-354 -357 0
356 -357 0
354 -356 357 0
c gate 358 296 -357 0
296 -358 0
-357 -358 0
-296 357 358 0
c gate 359 -249 294 0
-249 -359 0
294 -359 0
249 -294 359 0
c gate 360 248 -359 0
248 -360 0
-359 -360 0
-248 359 360 0
c gate 361 -358 360 0
-358 -361 0
360 -361 0
358 -360 361 0
c gate 362 292 -361 0
292 -362 0
-361 -362 0
-292 361 362 0
c gate 363 238 -239 0
238 -363 0
-239 -363 0
-238 239 363 0
c gate 364 237 -363 0
237 -364 0
-363 -364 0
-237 363 364 0
c gate 365 -362 364 0
-362 -365 0
364 -365 0
362 -364 365 0
c gate 366 290 -365 0
290 -366 0
-365 -366 0
-290 365 366 0
c gate 367 -235 288 0
-235 -367 0
288 -367 0
235 -288 367 0
c gate 368 233 -367 0
233 -368 0
-367 -368 0
-233 367 368 0
c gate 369 -366 368 0
-366 -369 0
368 -369 0
366 -368 369 0
c gate 370 232 -369 0
232 -370 0
-369 -370 0
-232 369 370 0
c gate 371 230 -370 0
230 -371 0
-370 -371 0
-230 370 371 0
c gate 372 228 229 0
228 -372 0
229 -372 0
-228 -229 372 0
c gate 373 199 372 0
199 -373 0
372 -373 0
-199 -372 373 0
c gate 374 227 373 0
227 -374 0
373 -374 0
-227 -373 374 0
c gate 375 -371 374 0
-371 -375 0
374 -375 0
371 -374 375 0
c gate 376 227 -228 0
227 -376 0
-228 -376 0
-227 228 376 0
c gate 377 223 -376 0
223 -377 0
-376 -377 0
-223 376 377 0
c gate 378 -375 377 0
-375 -378 0
377 -378 0
375 -377 378 0
c gate 379 198 -378 0
198 -379 0
-378 -379 0
-198 378 379 0
c gate 380 197 -379 0
197 -380 0
-379 -380 0
-197 379 380 0
c gate 381 196 -380 0
196 -381 0
-380 -381 0
-196 380 381 0
c gate 382 195 -381 0
195 -382 0
-381 -382 0
-195 381 382 0
c gate 383 194 -382 0
194 -383 0
-382 -383 0
-194 382 383 0
c gate 384 193 -383 0
193 -384 0
-383 -384 0
-193 383 384 0
c gate 385 192 -384 0
192 -385 0
-384 -385 0
-192 384 385 0
c gate 386 191 -385 0
191 -386 0
-385 -386 0
-191 385 386 0
c gate 387 190 -386 0
190 -387 0
-386 -387 0
-190 386 387 0
c gate 388 180 -387 0
180 -388 0
-387 -388 0
-180 387 388 0
c gate 389 -25 -388 0
-25 -389 0
-388 -389 0
25 388 389 0
c gate 390 155 -389 0
155 -390 0
-389 -390 0
-155 389 390 0
c gate 391 163 -390 0
163 -391 0
-390 -391 0
-163 390 391 0
c gate 392 280 388 0
280 -392 0
388 -392 0
-280 -388 392 0
c gate 393 -23 -392 0
-23 -393 0
-392 -393 0
23 392 393 0
c gate 394 -391 393 0
-391 -394 0
393 -394 0
391 -393 394 0
c gate 395 161 -394 0
161 -395 0
-394 -395 0
-161 394 395 0
c gate 396 -28 29 0
-28 -396 0
29 -396 0
28 -29 396 0
c gate 397 159 -396 0
159 -397 0
-396 -397 0
-159 396 397 0
c gate 398 -395 397 0
-395 -398 0
397 -398 0
395 -397 398 0
c gate 399 -32 396 0
-32 -399 0
396 -399 0
32 -396 399 0
c gate 400 -398 -399 0
-398 -400 0
-399 -400 0
398 399 400 0
c gate 401 285 -400 0
285 -401 0
-400 -401 0
-285 400 401 0
c gate 402 -285 -398 0
-285 -402 0
-398 -402 0
285 398 402 0
c gate 403 204 -402 0
204 -403 0
-402 -403 0
-204 402 403 0
c gate 404 -401 403 0
-401 -404 0
403 -404 0
401 -403 404 0
c gate 405 -29 203 0
-29 -405 0
203 -405 0
29 -203 405 0
c gate 406 -189 405 0
-189 -406 0
405 -406 0
189 -405 406 0
c gate 407 210 -406 0
210 -407 0
-406 -407 0
-210 406 407 0
c gate 408 112 220 0
112 -408 0
220 -408 0
-112 -220 408 0
c gate 409 114 -115 0
114 -409 0
-115 -409 0
-114 115 409 0
c gate 410 -116 -409 0
-116 -410 0
-409 -410 0
116 409 410 0
c gate 411 -117 -410 0
-117 -411 0
-410 -411 0
117 410 411 0
c gate 412 -119 -411 0
-119 -412 0
-411 -412 0
119 411 412 0
c gate 413 -120 -412 0
-120 -413 0
-412 -413 0
120 412 413 0
c gate 414 -121 -413 0
-121 -414 0
-413 -414 0
121 413 414 0
c gate 415 214 -414 0
214 -415 0
-414 -415 0
-214 414 415 0
c gate 416 123 -124 0
123 -416 0
-124 -416 0
-123 124 416 0
c gate 417 -125 -416 0
-125 -417 0
-416 -417 0
125 416 417 0
c gate 418 -415 417 0
-415 -418 0
417 -418 0
415 -417 418 0
c gate 419 -408 418 0
-408 -419 0
418 -419 0
408 -418 419 0
c gate 420 197 220 0
197 -420 0
220 -420 0
-197 -220 420 0
c gate 421 105 -106 0
105 -421 0
-106 -421 0
-105 106 421 0
c gate 422 -108 -421 0
-108 -422 0
-421 -422 0
108 421 422 0
c gate 423 -109 -422 0
-109 -423 0
-422 -423 0
109 422 423 0
c gate 424 -110 -423 0
-110 -424 0
-423 -424 0
110 423 424 0
c gate 425 198 202 0
198 -425 0
202 -425 0
-198 -202 425 0
c gate 426 101 -102 0
101 -426 0
-102 -426 0
-101 102 426 0
c gate 427 -103 -426 0
-103 -427 0
-426 -427 0
103 426 427 0
c gate 428 94 372 0
94 -428 0
372 -428 0
-94 -372 428 0
c gate 429 97 -98 0
97 -429 0
-98 -429 0
-97 98 429 0
c gate 430 -99 -429 0
-99 -430 0
-429 -430 0
99 429 430 0
c gate 431 -428 430 0
-428 -431 0
430 -431 0
428 -430 431 0
c gate 432 230 372 0
230 -432 0
372 -432 0
-230 -372 432 0
c gate 433 90 -91 0
90 -433 0
-91 -433 0
-90 91 433 0
c gate 434 -92 -433 0
-92 -434 0
-433 -434 0
92 433 434 0
c gate 435 231 233 0
231 -435 0
233 -435 0
-231 -233 435 0
c gate 436 83 -84 0
83 -436 0
-84 -436 0
-83 84 436 0
c gate 437 -86 -436 0
-86 -437 0
-436 -437 0
86 436 437 0
c gate 438 -87 -437 0
-87 -438 0
-437 -438 0
87 437 438 0
c gate 439 -88 -438 0
-88 -439 0
-438 -439 0
88 438 439 0
c gate 440 234 289 0
234 -440 0
289 -440 0
-234 -289 440 0
c gate 441 79 -80 0
79 -441 0
-80 -441 0
-79 80 441 0
c gate 442 -81 -441 0
-81 -442 0
-441 -442 0
81 441 442 0
c gate 443 72 -73 0
72 -443 0
-73 -443 0
-72 73 443 0
c gate 444 -75 -443 0
-75 -444 0
-443 -444 0
75 443 444 0
c gate 445 -76 -444 0
-76 -445 0
-444 -445 0
76 444 445 0
c gate 446 -77 -445 0
-77 -446 0
-445 -446 0
77 445 446 0
c gate 447 239 240 0
239 -447 0
240 -447 0
-239 -240 447 0
c gate 448 248 447 0
248 -448 0
447 -448 0
-248 -447 448 0
c gate 449 61 -62 0
61 -449 0
-62 -449 0
-61 62 449 0
c gate 450 -64 -449 0
-64 -450 0
-449 -450 0
64 449 450 0
c gate 451 -65 -450 0
-65 -451 0
-450 -451 0
65 450 451 0
c gate 452 -66 -451 0
-66 -452 0
-451 -452 0
66 451 452 0
c gate 453 57 -58 0
57 -453 0
-58 -453 0
-57 58 453 0
c gate 454 -59 -453 0
-59 -454 0
-453 -454 0
59 453 454 0
c gate 455 50 324 0
50 -455 0
324 -455 0
-50 -324 455 0
c gate 456 53 -54 0
53 -456 0
-54 -456 0
-53 54 456 0
c gate 457 -55 -456 0
-55 -457 0
-456 -457 0
55 456 457 0
c gate 458 -455 457 0
-455 -458 0
457 -458 0
455 -457 458 0
c gate 459 297 324 0
297 -459 0
324 -459 0
-297 -324 459 0
c gate 460 46 -47 0
46 -460 0
-47 -460 0
-46 47 460 0
c gate 461 -48 -460 0
-48 -461 0
-460 -461 0
48 460 461 0
c gate 462 298 299 0
298 -462 0
299 -462 0
-298 -299 462 0
c gate 463 39 -40 0
39 -463 0
-40 -463 0
-39 40 463 0
c gate 464 -42 -463 0
-42 -464 0
-463 -464 0
42 463 464 0
c gate 465 -43 -464 0
-43 -465 0
-464 -465 0
43 464 465 0
c gate 466 -44 -465 0
-44 -466 0
-465 -466 0
44 465 466 0
c gate 467 300 319 0
300 -467 0
319 -467 0
-300 -319 467 0
c gate 468 35 -36 0
35 -468 0
-36 -468 0
-35 36 468 0
c gate 469 -37 -468 0
-37 -469 0
-468 -469 0
37 468 469 0
c gate 470 2 -13 0
2 -470 0
-13 -470 0
-2 13 470 0
c gate 471 -24 -470 0
-24 -471 0
-470 -471 0
24 470 471 0
c gate 472 41 -52 0
41 -472 0
-52 -472 0
-41 52 472 0
c gate 473 -63 -472 0
-63 -473 0
-472 -473 0
63 472 473 0
c gate 474 -74 -473 0
-74 -474 0
-473 -474 0
74 473 474 0
c gate 475 -85 -474 0
-85 -475 0
-474 -475 0
85 474 475 0
c gate 476 -96 -475 0
-96 -476 0
-475 -476 0
96 475 476 0
c gate 477 -107 -476 0
-107 -477 0
-476 -477 0
107 476 477 0
c gate 478 332 -477 0
332 -478 0
-477 -478 0
-332 477 478 0
c gate 479 471 -478 0
471 -479 0
-478 -479 0
-471 478 479 0
c gate 480 330 -479 0
330 -480 0
-479 -480 0
-330 479 480 0
c gate 481 469 -480 0
469 -481 0
-480 -481 0
-469 480 481 0
c gate 482 467 -481 0
467 -482 0
-481 -482 0
-467 481 482 0
c gate 483 466 -482 0
466 -483 0
-482 -483 0
-466 482 483 0
c gate 484 462 -483 0
462 -484 0
-483 -484 0
-462 483 484 0
c gate 485 461 -484 0
461 -485 0
-484 -485 0
-461 484 485 0
c gate 486 459 -485 0
459 -486 0
-485 -486 0
-459 485 486 0
c gate 487 458 -486 0
458 -487 0
-486 -487 0
-458 486 487 0
c gate 488 308 -487 0
308 -488 0
-487 -488 0
-308 487 488 0
c gate 489 454 -488 0
454 -489 0
-488 -489 0
-454 488 489 0
c gate 490 306 -489 0
306 -490 0
-489 -490 0
-306 489 490 0
c gate 491 452 -490 0
452 -491 0
-490 -491 0
-452 490 491 0
c gate 492 -67 -491 0
-67 -492 0
-491 -492 0
67 491 492 0
c gate 493 -68 -492 0
-68 -493 0
-492 -493 0
68 492 493 0
c gate 494 -69 -493 0
-69 -494 0
-493 -494 0
69 493 494 0
c gate 495 -70 -494 0
-70 -495 0
-494 -495 0
70 494 495 0
c gate 496 448 -495 0
448 -496 0
-495 -496 0
-448 495 496 0
c gate 497 446 -496 0
446 -497 0
-496 -497 0
-446 496 497 0
c gate 498 291 -497 0
291 -498 0
-497 -498 0
-291 497 498 0
c gate 499 442 -498 0
442 -499 0
-498 -499 0
-442 498 499 0
c gate 500 440 -499 0
440 -500 0
-499 -500 0
-440 499 500 0
c gate 501 439 -500 0
439 -501 0
-500 -501 0
-439 500 501 0
c gate 502 435 -501 0
435 -502 0
-501 -502 0
-435 501 502 0
c gate 503 434 -502 0
434 -503 0
-502 -503 0
-434 502 503 0
c gate 504 432 -503 0
432 -504 0
-503 -504 0
-432 503 504 0
c gate 505 431 -504 0
431 -505 0
-504 -505 0
-431 504 505 0
c gate 506 225 -505 0
225 -506 0
-505 -506 0
-225 505 506 0
c gate 507 427 -506 0
427 -507 0
-506 -507 0
-427 506 507 0
c gate 508 425 -507 0
425 -508 0
-507 -508 0
-425 507 508 0
c gate 509 424 -508 0
424 -509 0
-508 -509 0
-424 508 509 0
c gate 510 420 -509 0
420 -510 0
-509 -510 0
-420 509 510 0
c gate 511 419 -510 0
419 -511 0
-510 -511 0
-419 510 511 0
c gate 512 407 -511 0
407 -512 0
-511 -512 0
-407 511 512 0
c gate 513 127 -128 0
127 -513 0
-128 -513 0
-127 128 513 0
c gate 514 -3 -513 0
-3 -514 0
-513 -514 0
3 513 514 0
c gate 515 -4 -514 0
-4 -515 0
-514 -515 0
4 514 515 0
c gate 516 -5 -515 0
-5 -516 0
-515 -516 0
5 515 516 0
c gate 517 -6 -516 0
-6 -517 0
-516 -517 0
6 516 517 0
c gate 518 -7 -517 0
-7 -518 0
-517 -518 0
7 517 518 0
c gate 519 -8 -518 0
-8 -519 0
-518 -519 0
8 518 519 0
c gate 520 -9 -519 0
-9 -520 0
-519 -520 0
9 519 520 0
c gate 521 -10 -520 0
-10 -521 0
-520 -521 0
10 520 521 0
c gate 522 -11 -521 0
-11 -522 0
-521 -522 0
11 521 522 0
c gate 523 186 -522 0
186 -523 0
-522 -523 0
-186 522 523 0
c gate 524 14 -15 0
14 -524 0
-15 -524 0
-14 15 524 0
c gate 525 -16 -524 0
-16 -525 0
-524 -525 0
16 524 525 0
c gate 526 -523 525 0
-523 -526 0
525 -526 0
523 -525 526 0
c gate 527 181 -526 0
181 -527 0
-526 -527 0
-181 526 527 0
c gate 528 18 -19 0
18 -528 0
-19 -528 0
-18 19 528 0
c gate 529 -20 -528 0
-20 -529 0
-528 -529 0
20 528 529 0
c gate 530 -527 529 0
-527 -530 0
529 -530 0
527 -529 530 0
c gate 531 -21 -530 0
-21 -531 0
-530 -531 0
21 530 531 0
c gate 532 -22 -531 0
-22 -532 0
-531 -532 0
22 531 532 0
c gate 533 135 150 0
135 -533 0
150 -533 0
-135 -150 533 0
c gate 534 -532 533 0
-532 -534 0
533 -534 0
532 -533 534 0
c gate 535 25 -26 0
25 -535 0
-26 -535 0
-25 26 535 0
c gate 536 -27 -535 0
-27 -536 0
-535 -536 0
27 535 536 0
c gate 537 -534 536 0
-534 -537 0
536 -537 0
534 -536 537 0
c gate 538 205 -537 0
205 -538 0
-537 -538 0
-205 537 538 0
c gate 539 203 538 0
203 -539 0
538 -539 0
-203 -538 539 0
c gate 540 -512 539 0
-512 -540 0
539 -540 0
512 -539 540 0
c gate 541 29 -30 0
29 -541 0
-30 -541 0
-29 30 541 0
c gate 542 -31 -541 0
-31 -542 0
-541 -542 0
31 541 542 0
c gate 543 -32 -542 0
-32 -543 0
-542 -543 0
32 542 543 0
c gate 544 512 -539 0
512 -544 0
-539 -544 0
-512 539 544 0
c gate 545 -543 -544 0
-543 -545 0
-544 -545 0
543 544 545 0
c gate 546 -540 545 0
-540 -546 0
545 -546 0
540 -545 546 0
c gate 547 330 -471 0
330 -547 0
-471 -547 0
-330 471 547 0
c gate 548 469 -547 0
469 -548 0
-547 -548 0
-469 547 548 0
c gate 549 467 -548 0
467 -549 0
-548 -549 0
-467 548 549 0
c gate 550 466 -549 0
466 -550 0
-549 -550 0
-466 549 550 0
c gate 551 462 -550 0
462 -551 0
-550 -551 0
-462 550 551 0
c gate 552 461 -551 0
461 -552 0
-551 -552 0
-461 551 552 0
c gate 553 459 -552 0
459 -553 0
-552 -553 0
-459 552 553 0
c gate 554 458 -553 0
458 -554 0
-553 -554 0
-458 553 554 0
c gate 555 308 -554 0
308 -555 0
-554 -555 0
-308 554 555 0
c gate 556 454 -555 0
454 -556 0
-555 -556 0
-454 555 556 0
c gate 557 306 -556 0
306 -557 0
-556 -557 0
-306 556 557 0
c gate 558 452 -557 0
452 -558 0
-557 -558 0
-452 557 558 0
c gate 559 -67 -558 0
-67 -559 0
-558 -559 0
67 558 559 0
c gate 560 -68 -559 0
-68 -560 0
-559 -560 0
68 559 560 0
c gate 561 -69 -560 0
-69 -561 0
-560 -561 0
69 560 561 0
c gate 562 -70 -561 0
-70 -562 0
-561 -562 0
70 561 562 0
c gate 563 448 -562 0
448 -563 0
-562 -563 0
-448 562 563 0
c gate 564 446 -563 0
446 -564 0
-563 -564 0
-446 563 564 0
c gate 565 291 -564 0
291 -565 0
-564 -565 0
-291 564 565 0
c gate 566 442 -565 0
442 -566 0
-565 -566 0
-442 565 566 0
c gate 567 440 -566 0
440 -567 0
-566 -567 0
-440 566 567 0
c gate 568 439 -567 0
439 -568 0
-567 -568 0
-439 567 568 0
c gate 569 435 -568 0
435 -569 0
-568 -569 0
-435 568 569 0
c gate 570 434 -569 0
434 -570 0
-569 -570 0
-434 569 570 0
c gate 571 432 -570 0
432 -571 0
-570 -571 0
-432 570 571 0
c gate 572 431 -571 0
431 -572 0
-571 -572 0
-431 571 572 0
c gate 573 225 -572 0
225 -573 0
-572 -573 0
-225 572 573 0
c gate 574 427 -573 0
427 -574 0
-573 -574 0
-427 573 574 0
c gate 575 425 -574 0
425 -575 0
-574 -575 0
-425 574 575 0
c gate 576 424 -575 0
424 -576 0
-575 -576 0
-424 575 576 0
c gate 577 420 -576 0
420 -577 0
-576 -577 0
-420 576 577 0
c gate 578 419 -577 0
419 -578 0
-577 -578 0
-419 577 578 0
c gate 579 407 -578 0
407 -579 0
-578 -579 0
-407 578 579 0
c gate 580 -30 538 0
-30 -580 0
538 -580 0
30 -538 580 0
c gate 581 542 -580 0
542 -581 0
-580 -581 0
-542 580 581 0
c gate 582 -579 581 0
-579 -582 0
581 -582 0
579 -581 582 0
c gate 583 -32 -582 0
-32 -583 0
-582 -583 0
32 582 583 0
c gate 584 32 405 0
32 -584 0
405 -584 0
-32 -405 584 0
c gate 585 -583 -584 0
-583 -585 0
-584 -585 0
583 584 585 0
c gate 586 -546 585 0
-546 -586 0
585 -586 0
546 -585 586 0
c gate 587 546 583 0
546 -587 0
583 -587 0
-546 -583 587 0
c gate 588 -586 -587 0
-586 -588 0
-587 -588 0
586 587 588 0
c gate 589 -404 588 0
-404 -589 0
588 -589 0
404 -588 589 0
c gate 590 -33 -589 0
-33 -590 0
-589 -590 0
33 589 590 0
c gate 591 239 292 0
239 -591 0
292 -591 0
-239 -292 591 0
c gate 592 189 591 0
189 -592 0
591 -592 0
-189 -591 592 0
c gate 593 290 592 0
290 -593 0
592 -593 0
-290 -592 593 0
c gate 594 -321 326 0
-321 -594 0
326 -594 0
321 -326 594 0
c gate 595 309 -594 0
309 -595 0
-594 -595 0
-309 594 595 0
c gate 596 293 -595 0
293 -596 0
-595 -596 0
-293 595 596 0
c gate 597 593 -596 0
593 -597 0
-596 -597 0
-593 596 597 0
c gate 598 287 -290 0
287 -598 0
-290 -598 0
-287 290 598 0
c gate 599 -597 -598 0
-597 -599 0
-598 -599 0
597 598 599 0
c gate 600 372 -599 0
372 -600 0
-599 -600 0
-372 599 600 0
c gate 601 227 -600 0
227 -601 0
-600 -601 0
-227 600 601 0
c gate 602 212 220 0
212 -602 0
220 -602 0
-212 -220 602 0
c gate 603 189 602 0
189 -603 0
602 -603 0
-189 -602 603 0
c gate 604 -601 603 0
-601 -604 0
603 -604 0
601 -603 604 0
c gate 605 188 -218 0
188 -605 0
-218 -605 0
-188 218 605 0
c gate 606 210 -605 0
210 -606 0
-605 -606 0
-210 605 606 0
c gate 607 208 -606 0
208 -607 0
-606 -607 0
-208 606 607 0
c gate 608 -604 607 0
-604 -608 0
607 -608 0
604 -607 608 0
c gate 609 -210 -217 0
-210 -609 0
-217 -609 0
210 217 609 0
c gate 610 185 -609 0
185 -610 0
-609 -610 0
-185 609 610 0
c gate 611 -328 593 0
-328 -611 0
593 -611 0
328 -593 611 0
c gate 612 -335 611 0
-335 -612 0
611 -612 0
335 -611 612 0
c gate 613 -66 -612 0
-66 -613 0
-612 -613 0
66 612 613 0
c gate 614 329 -613 0
329 -614 0
-613 -614 0
-329 613 614 0
c gate 615 310 -326 0
310 -615 0
-326 -615 0
-310 326 615 0
c gate 616 296 -615 0
296 -616 0
-615 -616 0
-296 615 616 0
c gate 617 593 -616 0
593 -617 0
-616 -617 0
-593 616 617 0
c gate 618 -614 -617 0
-614 -618 0
-617 -618 0
614 617 618 0
c gate 619 212 227 0
212 -619 0
227 -619 0
-212 -227 619 0
c gate 620 372 619 0
372 -620 0
619 -620 0
-372 -619 620 0
c gate 621 230 231 0
230 -621 0
231 -621 0
-230 -231 621 0
c gate 622 620 621 0
620 -622 0
621 -622 0
-620 -621 622 0
c gate 623 290 -622 0
290 -623 0
-622 -623 0
-290 622 623 0
c gate 624 -618 -623 0
-618 -624 0
-623 -624 0
618 623 624 0
c gate 625 -287 -618 0
-287 -625 0
-618 -625 0
287 618 625 0
c gate 626 -227 -625 0
-227 -626 0
-625 -626 0
227 625 626 0
c gate 627 -290 622 0
-290 -627 0
622 -627 0
290 -622 627 0
c gate 628 -626 -627 0
-626 -628 0
-627 -628 0
626 627 628 0
c gate 629 602 -628 0
602 -629 0
-628 -629 0
-602 628 629 0
c gate 630 -624 -629 0
-624 -630 0
-629 -630 0
624 629 630 0
c gate 631 210 -216 0
210 -631 0
-216 -631 0
-210 216 631 0
c gate 632 630 -631 0
630 -632 0
-631 -632 0
-630 631 632 0
c gate 633 610 -632 0
610 -633 0
-632 -633 0
-610 632 633 0
c gate 634 -188 210 0
-188 -634 0
210 -634 0
188 -210 634 0
c gate 635 -208 630 0
-208 -635 0
630 -635 0
208 -630 635 0
c gate 636 -634 -635 0
-634 -636 0
-635 -636 0
634 635 636 0
c gate 637 -633 636 0
-633 -637 0
636 -637 0
633 -636 637 0
c gate 638 -608 -637 0
-608 -638 0
-637 -638 0
608 637 638 0
c gate 639 608 637 0
608 -639 0
637 -639 0
-608 -637 639 0
c gate 640 -638 -639 0
-638 -640 0
-639 -640 0
638 639 640 0
c gate 641 319 -330 0
319 -641 0
-330 -641 0
-319 330 641 0
c gate 642 317 -641 0
317 -642 0
-641 -642 0
-317 641 642 0
c gate 643 325 -642 0
325 -643 0
-642 -643 0
-325 642 643 0
c gate 644 324 -643 0
324 -644 0
-643 -644 0
-324 643 644 0
c gate 645 310 -644 0
310 -645 0
-644 -645 0
-310 644 645 0
c gate 646 -312 -645 0
-312 -646 0
-645 -646 0
312 645 646 0
c gate 647 593 -646 0
593 -647 0
-646 -647 0
-593 646 647 0
c gate 648 290 -291 0
290 -648 0
-291 -648 0
-290 291 648 0
c gate 649 -286 287 0
-286 -649 0
287 -649 0
286 -287 649 0
c gate 650 372 -649 0
372 -650 0
-649 -650 0
-372 649 650 0
c gate 651 -648 650 0
-648 -651 0
650 -651 0
648 -650 651 0
c gate 652 -647 651 0
-647 -652 0
651 -652 0
647 -651 652 0
c gate 653 619 -652 0
619 -653 0
-652 -653 0
-619 652 653 0
c gate 654 221 -653 0
221 -654 0
-653 -654 0
-221 653 654 0
c gate 655 -593 -649 0
-593 -655 0
-649 -655 0
593 649 655 0
c gate 656 337 338 0
337 -656 0
338 -656 0
-337 -338 656 0
c gate 657 336 -656 0
336 -657 0
-656 -657 0
-336 656 657 0
c gate 658 295 646 0
295 -658 0
646 -658 0
-295 -646 658 0
c gate 659 -657 658 0
-657 -659 0
658 -659 0
657 -658 659 0
c gate 660 288 659 0
288 -660 0
659 -660 0
-288 -659 660 0
c gate 661 -655 -660 0
-655 -661 0
-660 -661 0
655 660 661 0
c gate 662 -648 -661 0
-648 -662 0
-661 -662 0
648 661 662 0
c gate 663 620 -662 0
620 -663 0
-662 -663 0
-620 662 663 0
c gate 664 225 -372 0
225 -664 0
-372 -664 0
-225 372 664 0
c gate 665 602 664 0
602 -665 0
664 -665 0
-602 -664 665 0
c gate 666 221 -665 0
221 -666 0
-665 -666 0
-221 665 666 0
c gate 667 -663 666 0
-663 -667 0
666 -667 0
663 -666 667 0
c gate 668 654 -667 0
654 -668 0
-667 -668 0
-654 667 668 0
c gate 669 -654 667 0
-654 -669 0
667 -669 0
654 -667 669 0
c gate 670 -668 -669 0
-668 -670 0
-669 -670 0
668 669 670 0
c gate 671 605 610 0
605 -671 0
610 -671 0
-605 -610 671 0
c gate 672 -670 671 0
-670 -672 0
671 -672 0
670 -671 672 0
c gate 673 -1 -41 0
-1 -673 0
-41 -673 0
1 41 673 0
c gate 674 -97 673 0
-97 -674 0
673 -674 0
97 -673 674 0
c gate 675 339 674 0
339 -675 0
674 -675 0
-339 -674 675 0
c gate 676 335 675 0
335 -676 0
675 -676 0
-335 -675 676 0
c gate 677 602 676 0
602 -677 0
676 -677 0
-602 -676 677 0
c gate 678 -657 677 0
-657 -678 0
677 -678 0
657 -677 678 0
c gate 679 611 678 0
611 -679 0
678 -679 0
-611 -678 679 0
c gate 680 -295 310 0
-295 -680 0
310 -680 0
295 -310 680 0
c gate 681 593 680 0
593 -681 0
680 -681 0
-593 -680 681 0
c gate 682 -97 98 0
-97 -682 0
98 -682 0
97 -98 682 0
c gate 683 -429 -682 0
-429 -683 0
-682 -683 0
429 682 683 0
c gate 684 -681 683 0
-681 -684 0
683 -684 0
681 -683 684 0
c gate 685 189 621 0
189 -685 0
621 -685 0
-189 -621 685 0
c gate 686 -684 685 0
-684 -686 0
685 -686 0
684 -685 686 0
c gate 687 -679 -686 0
-679 -687 0
-686 -687 0
679 686 687 0
c gate 688 620 -687 0
620 -688 0
-687 -688 0
-620 687 688 0
c gate 689 -672 -688 0
-672 -689 0
-688 -689 0
672 688 689 0
c gate 690 -640 689 0
-640 -690 0
689 -690 0
640 -689 690 0
c gate 691 -590 690 0
-590 -691 0
690 -691 0
590 -690 691 0
c PO
-691 0
